[[4, 25, 6, 15, 5, 24, 48, 38, 40, 37, 46, 44, 34, 35, 39, 36, 49, 32, 22, 31, 18, 45, 19, 9, 10, 8, 41, 3, 17, 21], [42, 7, 2, 30, 23, 20, 50, 16, 29, 47, 26, 28, 27, 13, 14, 52, 11, 51, 12, 33, 43]]